9
0 29 23 43 83 92 84 39 28
28 0 84 83 23 82 33 92 18
93 39 0 40 39 20 39 18 39
93 28 48 0 82 84 19 23 38
93 18 38 37 0 38 18 37 17
37 93 10 37 13 0 94 28 17
38 48 93 74 83 17 0 94 82
45 23 43 43 23 65 43 0 34
32 43 23 64 64 23 12 93 0
